Route #1: 0 43 16 35 15 29 36 49 5 4 0
Route #2: 0 28 18 50 39 7 20 23 10 52 0
Route #3: 0 6 32 14 27 12 2 42 46 0
Route #4: 0 30 34 41 25 47 51 24 48 40 0
Route #5: 0 37 8 19 31 53 0
Route #6: 0 38 44 9 33 21 26 0
Route #7: 0 1 17 45 3 22 11 13 0
Cost 1326:
